100
1000
199
199
197
197
197
196
196
196
196
196
195
194
194
194
194
193
192
191
191
190
190
189
189
188
188
187
186
186
184
184
181
181
181
180
180
180
180
178
178
177
177
176
176
175
175
175
174
174
174
173
173
172
172
171
171
171
171
169
169
169
169
168
167
167
166
166
165
164
164
164
164
163
162
162
162
162
162
161
161
160
160
160
160
159
159
157
157
157
156
156
156
154
154
153
152
152
152
151
150
150
